g3 1 1 0	# problem hydrogenchloride
 2 0 14 0 0 	# vars, constraints, objectives, ranges, eqns
 0 13 0 0 0 0	# nonlinear constrs, objs; ccons: lin, nonlin, nd, nzlb
 0 0	# network constraints: nonlinear, linear
 0 2 0 	# nonlinear vars in constraints, objectives, both
 0 0 0 1	# linear network variables; functions; arith, flags
 0 0 0 0 0 	# discrete variables: binary, integer, nonlinear (b,c,o)
 0 20 	# nonzeros in Jacobian, obj. gradient
 0 0	# max name lengths: constraints, variables
 0 0 0 0 0	# common exprs: b,c,o,c1,o1
O0 0
o0
o54
5
o43
v0
o2
n2.5
o43
v1
o2
n0.0033327
o43
o0
o16
o44
o2
n-0.9239866945915979
v1
n1
o2
n0.935243
o43
o0
o16
o44
o2
n-12.319822594554639
v1
n1
o2
n0.209996
o43
o0
o16
o44
o2
n-19.403720586423557
v1
n1
n-4.069044527
O1 0
o5
v0
n-1.0
O2 0
o16
o5
v0
n-2.0
O3 0
o0
o54
4
o2
n2.5
o5
v1
n-1.0
o2
o2
n0.003079370457065418
o5
o0
o16
o44
o2
n-0.9239866945915979
v1
n1.0
n-1.0
o44
o2
n-0.9239866945915979
v1
o2
o2
n4.074703708266601
o5
o0
o16
o44
o2
n-19.403720586423557
v1
n1.0
n-1.0
o44
o2
n-19.403720586423557
v1
o2
o2
n11.522027842799064
o5
o0
o16
o44
o2
n-12.319822594554639
v1
n1.0
n-1.0
o44
o2
n-12.319822594554639
v1
n4.0257768311
O4 0
o54
7
o2
n-2.5
o5
v1
n-2.0
o2
o2
n-141.94933895280354
o5
o0
o16
o44
o2
n-12.319822594554639
v1
n1.0
n-1.0
o44
o2
n-12.319822594554639
v1
o2
o2
n-141.94933895280354
o5
o0
o16
o44
o2
n-12.319822594554639
v1
n1.0
n-2.0
o44
o2
n-24.639645189109277
v1
o2
o2
n-0.0028452973300468936
o5
o0
o16
o44
o2
n-0.9239866945915979
v1
n1.0
n-1.0
o44
o2
n-0.9239866945915979
v1
o2
o2
n-0.0028452973300468936
o5
o0
o16
o44
o2
n-0.9239866945915979
v1
n1.0
n-2.0
o44
o2
n-1.8479733891831958
v1
o2
o2
n-79.06441222766905
o5
o0
o16
o44
o2
n-19.403720586423557
v1
n1.0
n-1.0
o44
o2
n-19.403720586423557
v1
o2
o2
n-79.06441222766905
o5
o0
o16
o44
o2
n-19.403720586423557
v1
n1.0
n-2.0
o44
o2
n-38.80744117284711
v1
O5 0
o54
15
o2
o2
n0.01952802
o5
v0
n4
v1
o2
o2
n1.926809
v0
o5
v1
n0.553
o2
o2
n-2.835744
v0
o5
v1
n1.037
o2
o2
n-0.2276121
o5
v0
n2
o5
v1
n0.817
o2
o2
n0.08843713
o5
v0
n3
o5
v1
n0.378
o2
o2
o2
n-2.433471
v0
o5
v1
n1.523
o44
o16
o5
v0
n2
o2
o2
o2
n-0.2636625
o5
v0
n3
o5
v1
n2.656
o44
o16
o5
v0
n2
o2
o2
o2
n0.6307008
o5
v0
n2
o5
v1
n1.338
o44
o2
n-1.0
v0
o2
o2
o2
n-0.6382638
o5
v0
n2
o5
v1
n2.828
o44
o16
o5
v0
n2
o2
o2
o2
n-0.006851438
o5
v0
n7
o5
v1
n0.75
o44
o2
n-1.0
v0
o2
o2
o2
n7.363661
v0
o5
v1
n0.644
o44
o0
o2
n-1.141
o5
o0
v0
n-0.855
n2
o2
n-0.95
o5
o0
v1
n-1.56
n2
o2
o2
o2
n-1.262993
v0
o5
v1
n2.892
o44
o0
o2
n-1.162
o5
o0
v0
n-0.91
n2
o2
n-0.92
o5
o0
v1
n-1.14
n2
o2
o2
o2
n-0.006539739
o5
v0
n3
o5
v1
n0.76
o44
o0
o2
n-34.6
o5
o0
v0
n-0.942
n2
o2
n-1550
o5
o0
v1
n-1.06
n2
o2
o2
o2
n-0.8752692
o5
v0
n2
o5
v1
n1.323
o44
o0
o2
n-1.175
o5
o0
v0
n-0.702
n2
o2
n-1.2
o5
o0
v1
n-0.94
n2
o2
o2
o2
n-3.224835
o5
v0
n2
o5
v1
n0.693
o44
o0
o2
n-0.99
o5
o0
v0
n-0.487
n2
o2
n-0.89
o5
o0
v1
n-1.25
n2
O6 0
o54
25
o2
n1.926809
o5
v1
n0.553
o2
n-2.835744
o5
v1
n1.037
o2
o2
n0.26531139000000004
o5
v0
n2.0
o5
v1
n0.378
o2
o2
n0.07811208
v1
o5
v0
n3.0
o2
o2
n7.363661
o5
v1
n0.644
o44
o0
o2
n-1.141
o5
o0
v0
n-0.855
n2.0
o2
n-0.95
o5
o0
v1
n-1.56
n2.0
o2
o2
n-2.433471
o5
v1
n1.523
o44
o16
o5
v0
n2.0
o2
o2
n-1.262993
o5
v1
n2.892
o44
o0
o2
n-1.162
o5
o0
v0
n-0.91
n2.0
o2
n-0.92
o5
o0
v1
n-1.14
n2.0
o2
o2
n-0.4552242
v0
o5
v1
n0.817
o2
o2
o2
n0.527325
o5
v0
n4.0
o5
v1
n2.656
o44
o16
o5
v0
n2.0
o2
o2
o2
n4.866942
o5
v0
n2.0
o5
v1
n1.523
o44
o16
o5
v0
n2.0
o2
o2
o2
n1.2765276
o5
v0
n3.0
o5
v1
n2.828
o44
o16
o5
v0
n2.0
o2
o2
o2
n0.006851438
o5
v0
n7.0
o5
v1
n0.75
o44
o2
n-1.0
v0
o2
o2
o2
n1.2614016
v0
o5
v1
n1.338
o44
o2
n-1.0
v0
o2
o2
o2
n-1.7505384
v0
o5
v1
n1.323
o44
o0
o2
n-1.175
o5
o0
v0
n-0.702
n2.0
o2
n-1.2
o5
o0
v1
n-0.94
n2.0
o2
o2
o2
n-0.047960065999999996
o5
v0
n6.0
o5
v1
n0.75
o44
o2
n-1.0
v0
o2
o2
o2
n-0.019619217
o5
v0
n2.0
o5
v1
n0.76
o44
o0
o2
n-1550.0
o5
o0
v1
n-1.06
n2.0
o2
n-34.6
o5
o0
v0
n-0.942
n2.0
o2
o2
o2
n-1.2765276
v0
o5
v1
n2.828
o44
o16
o5
v0
n2.0
o2
o2
o2
n-0.6307008
o5
v0
n2.0
o5
v1
n1.338
o44
o2
n-1.0
v0
o2
o2
o2
n-0.7909875000000001
o5
v0
n2.0
o5
v1
n2.656
o44
o16
o5
v0
n2.0
o2
o2
o2
n-6.44967
v0
o5
v1
n0.693
o44
o0
o2
n-0.99
o5
o0
v0
n-0.487
n2.0
o2
n-0.89
o5
o0
v1
n-1.25
n2.0
o2
o2
o2
o2
n7.363661
v0
o5
v1
n0.644
o0
o2
n-2.282
v0
n1.95111
o44
o0
o2
n-1.141
o5
o0
v0
n-0.855
n2.0
o2
n-0.95
o5
o0
v1
n-1.56
n2.0
o2
o2
o2
o2
n-0.8752692
o5
v0
n2.0
o5
v1
n1.323
o0
o2
n-2.35
v0
n1.6497
o44
o0
o2
n-1.175
o5
o0
v0
n-0.702
n2.0
o2
n-1.2
o5
o0
v1
n-0.94
n2.0
o2
o2
o2
o2
n-1.262993
v0
o5
v1
n2.892
o0
o2
n-2.324
v0
n2.11484
o44
o0
o2
n-1.162
o5
o0
v0
n-0.91
n2.0
o2
n-0.92
o5
o0
v1
n-1.14
n2.0
o2
o2
o2
o2
n-3.224835
o5
v0
n2.0
o5
v1
n0.693
o0
o2
n-1.98
v0
n0.96426
o44
o0
o2
n-0.99
o5
o0
v0
n-0.487
n2.0
o2
n-0.89
o5
o0
v1
n-1.25
n2.0
o2
o2
o2
o2
n-0.006539739
o5
v0
n3.0
o5
v1
n0.76
o0
o2
n-69.2
v0
n65.1864
o44
o0
o2
n-1550.0
o5
o0
v1
n-1.06
n2.0
o2
n-34.6
o5
o0
v0
n-0.942
n2.0
O7 0
o54
41
o2
n-0.4552242
o5
v1
n0.817
o2
o2
n0.5306227800000001
o5
v1
n0.378
v0
o2
o2
n1.2614016
o5
v1
n1.338
o44
o2
n-1.0
v0
o2
o2
n0.23433624
v1
o5
v0
n2.0
o2
o2
n-1.7505384
o5
v1
n1.323
o44
o0
o2
n-1.175
o5
o0
v0
n-0.702
n2.0
o2
n-1.2
o5
o0
v1
n-0.94
n2.0
o2
o2
n-1.2765276
o5
v1
n2.828
o44
o16
o5
v0
n2.0
o2
o2
n-6.44967
o5
v1
n0.693
o44
o0
o2
n-0.99
o5
o0
v0
n-0.487
n2.0
o2
n-0.89
o5
o0
v1
n-1.25
n2.0
o2
o2
o2
n6.382638
o5
v1
n2.828
o5
v0
n2.0
o44
o16
o5
v0
n2.0
o2
o2
o2
n0.09592013199999999
o5
v1
n0.75
o5
v0
n6.0
o44
o2
n-1.0
v0
o2
o2
o2
n0.45254993880000005
o5
v1
n0.76
o5
v0
n3.0
o44
o0
o2
n-1550.0
o5
o0
v1
n-1.06
n2.0
o2
n-34.6
o5
o0
v0
n-0.942
n2.0
o2
o2
o2
n6.3851733
o5
v1
n0.693
o5
v0
n2.0
o44
o0
o2
n-0.99
o5
o0
v0
n-0.487
n2.0
o2
n-0.89
o5
o0
v1
n-1.25
n2.0
o2
o2
o2
n3.691275
o5
v1
n2.656
o5
v0
n3.0
o44
o16
o5
v0
n2.0
o2
o2
o2
n2.05688262
o5
v1
n1.323
o5
v0
n2.0
o44
o0
o2
n-1.175
o5
o0
v0
n-0.702
n2.0
o2
n-1.2
o5
o0
v1
n-0.94
n2.0
o2
o2
o2
n0.6307008
o5
v1
n1.338
o5
v0
n2.0
o44
o2
n-1.0
v0
o2
o2
o2
n2.935195732
v0
o5
v1
n2.892
o44
o0
o2
n-1.162
o5
o0
v0
n-0.91
n2.0
o2
n-0.92
o5
o0
v1
n-1.14
n2.0
o2
o2
o2
n2.935195732
o5
v1
n2.892
o0
v0
n-0.91
o44
o0
o2
n-1.162
o5
o0
v0
n-0.91
n2.0
o2
n-0.92
o5
o0
v1
n-1.14
n2.0
o2
o2
o2
n14.600826
o5
v1
n1.523
v0
o44
o16
o5
v0
n2.0
o2
o2
o2
n7.363661
o5
v1
n0.644
o0
o2
n-2.282
v0
n1.95111
o44
o0
o2
n-1.141
o5
o0
v0
n-0.855
n2.0
o2
n-0.95
o5
o0
v1
n-1.56
n2.0
o2
o2
o2
n-16.803874401999998
v0
o5
v1
n0.644
o44
o0
o2
n-1.141
o5
o0
v0
n-0.855
n2.0
o2
n-0.95
o5
o0
v1
n-1.56
n2.0
o2
o2
o2
n-16.803874401999998
o5
v1
n0.644
o0
v0
n-0.855
o44
o0
o2
n-1.141
o5
o0
v0
n-0.855
n2.0
o2
n-0.95
o5
o0
v1
n-1.56
n2.0
o2
o2
o2
n-1.05465
o5
v1
n2.656
o5
v0
n5.0
o44
o16
o5
v0
n2.0
o2
o2
o2
n-9.733884
o5
v1
n1.523
o5
v0
n3.0
o44
o16
o5
v0
n2.0
o2
o2
o2
n-0.039238434
o5
v1
n0.76
v0
o44
o0
o2
n-1550.0
o5
o0
v1
n-1.06
n2.0
o2
n-34.6
o5
o0
v0
n-0.942
n2.0
o2
o2
o2
n-2.5530552
o5
v1
n2.828
o5
v0
n4.0
o44
o16
o5
v0
n2.0
o2
o2
o2
n-0.006851438
o5
v1
n0.75
o5
v0
n7.0
o44
o2
n-1.0
v0
o2
o2
o2
n-0.287760396
o5
v1
n0.75
o5
v0
n5.0
o44
o2
n-1.0
v0
o2
o2
o2
n-1.2614016
v0
o5
v1
n1.338
o44
o2
n-1.0
v0
o2
o2
o2
n-1.2614016
o5
v1
n1.338
v0
o44
o2
n-1.0
v0
o2
o2
o2
n-1.262993
o5
v1
n2.892
o0
o2
n-2.324
v0
n2.11484
o44
o0
o2
n-1.162
o5
o0
v0
n-0.91
n2.0
o2
n-0.92
o5
o0
v1
n-1.14
n2.0
o2
o2
o2
n-1.5819750000000001
o5
v1
n2.656
v0
o44
o16
o5
v0
n2.0
o2
o2
o2
o2
n12.7703466
v0
o5
v1
n0.693
o0
v0
n-0.487
o44
o0
o2
n-0.99
o5
o0
v0
n-0.487
n2.0
o2
n-0.89
o5
o0
v1
n-1.25
n2.0
o2
o2
o2
o2
n4.11376524
v0
o5
v1
n1.323
o0
v0
n-0.702
o44
o0
o2
n-1.175
o5
o0
v0
n-0.702
n2.0
o2
n-1.2
o5
o0
v1
n-0.94
n2.0
o2
o2
o2
o2
n1.3576498164000002
o5
v1
n0.76
o5
v0
n2.0
o0
v0
n-0.942
o44
o0
o2
n-1550.0
o5
o0
v1
n-1.06
n2.0
o2
n-34.6
o5
o0
v0
n-0.942
n2.0
o2
o2
o2
o2
n-1.7505384
o5
v1
n1.323
v0
o0
o2
n-2.35
v0
n1.6497
o44
o0
o2
n-1.175
o5
o0
v0
n-0.702
n2.0
o2
n-1.2
o5
o0
v1
n-0.94
n2.0
o2
o2
o2
o2
n-0.019619217
o5
v1
n0.76
o5
v0
n2.0
o0
o2
n-69.2
v0
n65.1864
o44
o0
o2
n-1550.0
o5
o0
v1
n-1.06
n2.0
o2
n-34.6
o5
o0
v0
n-0.942
n2.0
o2
o2
o2
o2
n-6.44967
o5
v1
n0.693
v0
o0
o2
n-1.98
v0
n0.96426
o44
o0
o2
n-0.99
o5
o0
v0
n-0.487
n2.0
o2
n-0.89
o5
o0
v1
n-1.25
n2.0
o2
o2
o2
o2
o2
n0.45254993880000005
o5
v1
n0.76
o5
v0
n3.0
o0
v0
n-0.942
o0
o2
n-69.2
v0
n65.1864
o44
o0
o2
n-1550.0
o5
o0
v1
n-1.06
n2.0
o2
n-34.6
o5
o0
v0
n-0.942
n2.0
o2
o2
o2
o2
o2
n6.3851733
o5
v1
n0.693
o5
v0
n2.0
o0
v0
n-0.487
o0
o2
n-1.98
v0
n0.96426
o44
o0
o2
n-0.99
o5
o0
v0
n-0.487
n2.0
o2
n-0.89
o5
o0
v1
n-1.25
n2.0
o2
o2
o2
o2
o2
n2.05688262
o5
v1
n1.323
o5
v0
n2.0
o0
v0
n-0.702
o0
o2
n-2.35
v0
n1.6497
o44
o0
o2
n-1.175
o5
o0
v0
n-0.702
n2.0
o2
n-1.2
o5
o0
v1
n-0.94
n2.0
o2
o2
o2
o2
o2
n2.935195732
v0
o5
v1
n2.892
o0
v0
n-0.91
o0
o2
n-2.324
v0
n2.11484
o44
o0
o2
n-1.162
o5
o0
v0
n-0.91
n2.0
o2
n-0.92
o5
o0
v1
n-1.14
n2.0
o2
o2
o2
o2
o2
n-16.803874401999998
v0
o5
v1
n0.644
o0
v0
n-0.855
o0
o2
n-2.282
v0
n1.95111
o44
o0
o2
n-1.141
o5
o0
v0
n-0.855
n2.0
o2
n-0.95
o5
o0
v1
n-1.56
n2.0
O8 0
o54
20
o2
n0.01952802
o5
v0
n4.0
o2
o2
n1.0655253770000002
v0
o5
v1
n-0.44699999999999995
o2
o2
n0.03342923514
o5
v0
n3.0
o5
v1
n-0.622
o2
o2
n-2.940666528
v0
o5
v1
n0.03699999999999992
o2
o2
n-0.1859590857
o5
v0
n2.0
o5
v1
n-0.18300000000000005
o2
o2
o2
n0.8438776704
o5
v0
n2.0
o5
v1
n0.3380000000000001
o44
o2
n-1.0
v0
o2
o2
o2
n4.742197684
v0
o5
v1
n-0.356
o44
o0
o2
n-1.141
o5
o0
v0
n-0.855
n2.0
o2
n-0.95
o5
o0
v1
n-1.56
n2.0
o2
o2
o2
n-0.005138578499999999
o5
v0
n7.0
o5
v1
n-0.25
o44
o2
n-1.0
v0
o2
o2
o2
n-3.652575756
v0
o5
v1
n1.892
o44
o0
o2
n-1.162
o5
o0
v0
n-0.91
n2.0
o2
n-0.92
o5
o0
v1
n-1.14
n2.0
o2
o2
o2
n-2.234810655
o5
v0
n2.0
o5
v1
n-0.30700000000000005
o44
o0
o2
n-0.99
o5
o0
v0
n-0.487
n2.0
o2
n-0.89
o5
o0
v1
n-1.25
n2.0
o2
o2
o2
n-1.1579811515999998
o5
v0
n2.0
o5
v1
n0.32299999999999995
o44
o0
o2
n-1.175
o5
o0
v0
n-0.702
n2.0
o2
n-1.2
o5
o0
v1
n-0.94
n2.0
o2
o2
o2
n-0.0049702016400000005
o5
v0
n3.0
o5
v1
n-0.24
o44
o0
o2
n-1550.0
o5
o0
v1
n-1.06
n2.0
o2
n-34.6
o5
o0
v0
n-0.942
n2.0
o2
o2
o2
n-0.7002876000000001
o5
v0
n3.0
o5
v1
n1.6560000000000001
o44
o16
o5
v0
n2.0
o2
o2
o2
n-1.8050100264
o5
v0
n2.0
o5
v1
n1.8279999999999998
o44
o16
o5
v0
n2.0
o2
o2
o2
n-3.7061763329999997
v0
o5
v1
n0.5229999999999999
o44
o16
o5
v0
n2.0
o2
o2
o2
o2
n7.363661
v0
o5
v1
n0.644
o0
o2
n-1.9
v1
n2.964
o44
o0
o2
n-1.141
o5
o0
v0
n-0.855
n2.0
o2
n-0.95
o5
o0
v1
n-1.56
n2.0
o2
o2
o2
o2
n-0.8752692
o5
v0
n2.0
o5
v1
n1.323
o0
o2
n-2.4
v1
n2.256
o44
o0
o2
n-1.175
o5
o0
v0
n-0.702
n2.0
o2
n-1.2
o5
o0
v1
n-0.94
n2.0
o2
o2
o2
o2
n-1.262993
v0
o5
v1
n2.892
o0
o2
n-1.84
v1
n2.0976
o44
o0
o2
n-1.162
o5
o0
v0
n-0.91
n2.0
o2
n-0.92
o5
o0
v1
n-1.14
n2.0
o2
o2
o2
o2
n-3.224835
o5
v0
n2.0
o5
v1
n0.693
o0
o2
n-1.78
v1
n2.225
o44
o0
o2
n-0.99
o5
o0
v0
n-0.487
n2.0
o2
n-0.89
o5
o0
v1
n-1.25
n2.0
o2
o2
o2
o2
n-0.006539739
o5
v0
n3.0
o5
v1
n0.76
o0
o2
n-3100.0
v1
n3286.0
o44
o0
o2
n-1550.0
o5
o0
v1
n-1.06
n2.0
o2
n-34.6
o5
o0
v0
n-0.942
n2.0
O9 0
o54
34
o2
o2
n0.034030512683100006
o5
v0
n2.0
o5
v1
n-1.183
o2
o2
n-0.10880466153599977
v0
o5
v1
n-0.9630000000000001
o2
o2
n-0.02079298425708
o5
v0
n3.0
o5
v1
n-1.6219999999999999
o2
o2
n-0.476289843519
v0
o5
v1
n-1.447
o2
o2
o2
n0.6860868710850001
o5
v0
n2.0
o5
v1
n-1.307
o44
o0
o2
n-0.99
o5
o0
v0
n-0.487
n2.0
o2
n-0.89
o5
o0
v1
n-1.25
n2.0
o2
o2
o2
n5.7402063000000005
o5
v0
n2.0
o5
v1
n0.693
o44
o0
o2
n-0.99
o5
o0
v0
n-0.487
n2.0
o2
n-0.89
o5
o0
v1
n-1.25
n2.0
o2
o2
o2
n2.1006460799999997
o5
v0
n2.0
o5
v1
n1.323
o44
o0
o2
n-1.175
o5
o0
v0
n-0.702
n2.0
o2
n-1.2
o5
o0
v1
n-0.94
n2.0
o2
o2
o2
n2.3239071200000003
v0
o5
v1
n2.892
o44
o0
o2
n-1.162
o5
o0
v0
n-0.91
n2.0
o2
n-0.92
o5
o0
v1
n-1.14
n2.0
o2
o2
o2
n0.0011928483936
o5
v0
n3.0
o5
v1
n-1.24
o44
o0
o2
n-1550.0
o5
o0
v1
n-1.06
n2.0
o2
n-34.6
o5
o0
v0
n-0.942
n2.0
o2
o2
o2
n0.0012846446249999998
o5
v0
n7.0
o5
v1
n-1.25
o44
o2
n-1.0
v0
o2
o2
o2
n0.28523065259520003
o5
v0
n2.0
o5
v1
n-0.6619999999999999
o44
o2
n-1.0
v0
o2
o2
o2
n20.2731909
o5
v0
n3.0
o5
v1
n0.76
o44
o0
o2
n-1550.0
o5
o0
v1
n-1.06
n2.0
o2
n-34.6
o5
o0
v0
n-0.942
n2.0
o2
o2
o2
n-1.1596762656000004
o5
v0
n3.0
o5
v1
n0.6560000000000001
o44
o16
o5
v0
n2.0
o2
o2
o2
n-3.2995583282591996
o5
v0
n2.0
o5
v1
n0.8279999999999998
o44
o16
o5
v0
n2.0
o2
o2
o2
n-0.3740279119667999
o5
v0
n2.0
o5
v1
n-0.677
o44
o0
o2
n-1.175
o5
o0
v0
n-0.702
n2.0
o2
n-1.2
o5
o0
v1
n-0.94
n2.0
o2
o2
o2
n-1.6882223755039998
v0
o5
v1
n-1.3559999999999999
o44
o0
o2
n-1.141
o5
o0
v0
n-0.855
n2.0
o2
n-0.95
o5
o0
v1
n-1.56
n2.0
o2
o2
o2
n-6.910673330352
v0
o5
v1
n0.8919999999999999
o44
o0
o2
n-1.162
o5
o0
v0
n-0.91
n2.0
o2
n-0.92
o5
o0
v1
n-1.14
n2.0
o2
o2
o2
n-13.990955899999998
v0
o5
v1
n0.644
o44
o0
o2
n-1.141
o5
o0
v0
n-0.855
n2.0
o2
n-0.95
o5
o0
v1
n-1.56
n2.0
o2
o2
o2
n-1.9383302221589995
v0
o5
v1
n-0.4770000000000001
o44
o16
o5
v0
n2.0
o2
o2
o2
o2
n2.7791547638399994
o5
v0
n2.0
o5
v1
n0.32299999999999995
o0
v1
n-0.94
o44
o0
o2
n-1.175
o5
o0
v0
n-0.702
n2.0
o2
n-1.2
o5
o0
v1
n-0.94
n2.0
o2
o2
o2
o2
n6.72073939104
v0
o5
v1
n1.892
o0
v1
n-1.14
o44
o0
o2
n-1.162
o5
o0
v0
n-0.91
n2.0
o2
n-0.92
o5
o0
v1
n-1.14
n2.0
o2
o2
o2
o2
n4.742197684
v0
o5
v1
n-0.356
o0
o2
n-1.9
v1
n2.964
o44
o0
o2
n-1.141
o5
o0
v0
n-0.855
n2.0
o2
n-0.95
o5
o0
v1
n-1.56
n2.0
o2
o2
o2
o2
n15.407625084000001
o5
v0
n3.0
o5
v1
n-0.24
o0
v1
n-1.06
o44
o0
o2
n-1550.0
o5
o0
v1
n-1.06
n2.0
o2
n-34.6
o5
o0
v0
n-0.942
n2.0
o2
o2
o2
o2
n3.9779629659
o5
v0
n2.0
o5
v1
n-0.30700000000000005
o0
v1
n-1.25
o44
o0
o2
n-0.99
o5
o0
v0
n-0.487
n2.0
o2
n-0.89
o5
o0
v1
n-1.25
n2.0
o2
o2
o2
o2
n-3.652575756
v0
o5
v1
n1.892
o0
o2
n-1.84
v1
n2.0976
o44
o0
o2
n-1.162
o5
o0
v0
n-0.91
n2.0
o2
n-0.92
o5
o0
v1
n-1.14
n2.0
o2
o2
o2
o2
n-2.234810655
o5
v0
n2.0
o5
v1
n-0.30700000000000005
o0
o2
n-1.78
v1
n2.225
o44
o0
o2
n-0.99
o5
o0
v0
n-0.487
n2.0
o2
n-0.89
o5
o0
v1
n-1.25
n2.0
o2
o2
o2
o2
n-9.010175599599998
v0
o5
v1
n-0.356
o0
v1
n-1.56
o44
o0
o2
n-1.141
o5
o0
v0
n-0.855
n2.0
o2
n-0.95
o5
o0
v1
n-1.56
n2.0
o2
o2
o2
o2
n-1.1579811515999998
o5
v0
n2.0
o5
v1
n0.32299999999999995
o0
o2
n-2.4
v1
n2.256
o44
o0
o2
n-1.175
o5
o0
v0
n-0.702
n2.0
o2
n-1.2
o5
o0
v1
n-0.94
n2.0
o2
o2
o2
o2
n-0.0049702016400000005
o5
v0
n3.0
o5
v1
n-0.24
o0
o2
n-3100.0
v1
n3286.0
o44
o0
o2
n-1550.0
o5
o0
v1
n-1.06
n2.0
o2
n-34.6
o5
o0
v0
n-0.942
n2.0
o2
o2
o2
o2
o2
n5.7402063000000005
o5
v0
n2.0
o5
v1
n0.693
o0
v1
n-1.25
o0
o2
n-1.78
v1
n2.225
o44
o0
o2
n-0.99
o5
o0
v0
n-0.487
n2.0
o2
n-0.89
o5
o0
v1
n-1.25
n2.0
o2
o2
o2
o2
o2
n2.1006460799999997
o5
v0
n2.0
o5
v1
n1.323
o0
v1
n-0.94
o0
o2
n-2.4
v1
n2.256
o44
o0
o2
n-1.175
o5
o0
v0
n-0.702
n2.0
o2
n-1.2
o5
o0
v1
n-0.94
n2.0
o2
o2
o2
o2
o2
n2.3239071200000003
v0
o5
v1
n2.892
o0
v1
n-1.14
o0
o2
n-1.84
v1
n2.0976
o44
o0
o2
n-1.162
o5
o0
v0
n-0.91
n2.0
o2
n-0.92
o5
o0
v1
n-1.14
n2.0
o2
o2
o2
o2
o2
n20.2731909
o5
v0
n3.0
o5
v1
n0.76
o0
v1
n-1.06
o0
o2
n-3100.0
v1
n3286.0
o44
o0
o2
n-1550.0
o5
o0
v1
n-1.06
n2.0
o2
n-34.6
o5
o0
v0
n-0.942
n2.0
o2
o2
o2
o2
o2
n-13.990955899999998
v0
o5
v1
n0.644
o0
v1
n-1.56
o0
o2
n-1.9
v1
n2.964
o44
o0
o2
n-1.141
o5
o0
v0
n-0.855
n2.0
o2
n-0.95
o5
o0
v1
n-1.56
n2.0
O10 0
o54
35
o2
n1.0655253770000002
o5
v1
n-0.44699999999999995
o2
n0.07811208
o5
v0
n3.0
o2
n-2.940666528
o5
v1
n0.03699999999999992
o2
o2
n0.10028770542000001
o5
v1
n-0.622
o5
v0
n2.0
o2
o2
n4.742197684
o5
v1
n-0.356
o44
o0
o2
n-1.141
o5
o0
v0
n-0.855
n2.0
o2
n-0.95
o5
o0
v1
n-1.56
n2.0
o2
o2
n-3.652575756
o5
v1
n1.892
o44
o0
o2
n-1.162
o5
o0
v0
n-0.91
n2.0
o2
n-0.92
o5
o0
v1
n-1.14
n2.0
o2
o2
n-0.3719181714
v0
o5
v1
n-0.18300000000000005
o2
o2
n-3.7061763329999997
o5
v1
n0.5229999999999999
o44
o16
o5
v0
n2.0
o2
o2
o2
n1.6877553408
v0
o5
v1
n0.3380000000000001
o44
o2
n-1.0
v0
o2
o2
o2
n2.3239071200000003
o5
v1
n2.892
o0
v1
n-1.14
o44
o0
o2
n-1.162
o5
o0
v0
n-0.91
n2.0
o2
n-0.92
o5
o0
v1
n-1.14
n2.0
o2
o2
o2
n0.005138578499999999
o5
v1
n-0.25
o5
v0
n7.0
o44
o2
n-1.0
v0
o2
o2
o2
n1.4005752000000002
o5
v1
n1.6560000000000001
o5
v0
n4.0
o44
o16
o5
v0
n2.0
o2
o2
o2
n3.6100200528
o5
v1
n1.8279999999999998
o5
v0
n3.0
o44
o16
o5
v0
n2.0
o2
o2
o2
n7.412352665999999
o5
v1
n0.5229999999999999
o5
v0
n2.0
o44
o16
o5
v0
n2.0
o2
o2
o2
n-0.01491060492
o5
v1
n-0.24
o5
v0
n2.0
o44
o0
o2
n-1550.0
o5
o0
v1
n-1.06
n2.0
o2
n-34.6
o5
o0
v0
n-0.942
n2.0
o2
o2
o2
n-0.8438776704
o5
v1
n0.3380000000000001
o5
v0
n2.0
o44
o2
n-1.0
v0
o2
o2
o2
n-2.1008628000000003
o5
v1
n1.6560000000000001
o5
v0
n2.0
o44
o16
o5
v0
n2.0
o2
o2
o2
n-4.46962131
v0
o5
v1
n-0.30700000000000005
o44
o0
o2
n-0.99
o5
o0
v0
n-0.487
n2.0
o2
n-0.89
o5
o0
v1
n-1.25
n2.0
o2
o2
o2
n-0.0359700495
o5
v1
n-0.25
o5
v0
n6.0
o44
o2
n-1.0
v0
o2
o2
o2
n-2.3159623031999996
v0
o5
v1
n0.32299999999999995
o44
o0
o2
n-1.175
o5
o0
v0
n-0.702
n2.0
o2
n-1.2
o5
o0
v1
n-0.94
n2.0
o2
o2
o2
n-13.990955899999998
o5
v1
n0.644
o0
v1
n-1.56
o44
o0
o2
n-1.141
o5
o0
v0
n-0.855
n2.0
o2
n-0.95
o5
o0
v1
n-1.56
n2.0
o2
o2
o2
n-3.6100200528
v0
o5
v1
n1.8279999999999998
o44
o16
o5
v0
n2.0
o2
o2
o2
o2
n11.480412600000001
v0
o5
v1
n0.693
o0
v1
n-1.25
o44
o0
o2
n-0.99
o5
o0
v0
n-0.487
n2.0
o2
n-0.89
o5
o0
v1
n-1.25
n2.0
o2
o2
o2
o2
n4.2012921599999995
v0
o5
v1
n1.323
o0
v1
n-0.94
o44
o0
o2
n-1.175
o5
o0
v0
n-0.702
n2.0
o2
n-1.2
o5
o0
v1
n-0.94
n2.0
o2
o2
o2
o2
n4.742197684
v0
o5
v1
n-0.356
o0
o2
n-2.282
v0
n1.95111
o44
o0
o2
n-1.141
o5
o0
v0
n-0.855
n2.0
o2
n-0.95
o5
o0
v1
n-1.56
n2.0
o2
o2
o2
o2
n60.8195727
o5
v1
n0.76
o5
v0
n2.0
o0
v1
n-1.06
o44
o0
o2
n-1550.0
o5
o0
v1
n-1.06
n2.0
o2
n-34.6
o5
o0
v0
n-0.942
n2.0
o2
o2
o2
o2
n-3.652575756
v0
o5
v1
n1.892
o0
o2
n-2.324
v0
n2.11484
o44
o0
o2
n-1.162
o5
o0
v0
n-0.91
n2.0
o2
n-0.92
o5
o0
v1
n-1.14
n2.0
o2
o2
o2
o2
n-2.234810655
o5
v1
n-0.30700000000000005
o5
v0
n2.0
o0
o2
n-1.98
v0
n0.96426
o44
o0
o2
n-0.99
o5
o0
v0
n-0.487
n2.0
o2
n-0.89
o5
o0
v1
n-1.25
n2.0
o2
o2
o2
o2
n-1.1579811515999998
o5
v1
n0.32299999999999995
o5
v0
n2.0
o0
o2
n-2.35
v0
n1.6497
o44
o0
o2
n-1.175
o5
o0
v0
n-0.702
n2.0
o2
n-1.2
o5
o0
v1
n-0.94
n2.0
o2
o2
o2
o2
n-0.0049702016400000005
o5
v1
n-0.24
o5
v0
n3.0
o0
o2
n-69.2
v0
n65.1864
o44
o0
o2
n-1550.0
o5
o0
v1
n-1.06
n2.0
o2
n-34.6
o5
o0
v0
n-0.942
n2.0
o2
o2
o2
o2
o2
n5.7402063000000005
o5
v1
n0.693
o5
v0
n2.0
o0
v1
n-1.25
o0
o2
n-1.98
v0
n0.96426
o44
o0
o2
n-0.99
o5
o0
v0
n-0.487
n2.0
o2
n-0.89
o5
o0
v1
n-1.25
n2.0
o2
o2
o2
o2
o2
n2.1006460799999997
o5
v1
n1.323
o5
v0
n2.0
o0
v1
n-0.94
o0
o2
n-2.35
v0
n1.6497
o44
o0
o2
n-1.175
o5
o0
v0
n-0.702
n2.0
o2
n-1.2
o5
o0
v1
n-0.94
n2.0
o2
o2
o2
o2
o2
n2.3239071200000003
v0
o5
v1
n2.892
o0
v1
n-1.14
o0
o2
n-2.324
v0
n2.11484
o44
o0
o2
n-1.162
o5
o0
v0
n-0.91
n2.0
o2
n-0.92
o5
o0
v1
n-1.14
n2.0
o2
o2
o2
o2
o2
n20.2731909
o5
v1
n0.76
o5
v0
n3.0
o0
v1
n-1.06
o0
o2
n-69.2
v0
n65.1864
o44
o0
o2
n-1550.0
o5
o0
v1
n-1.06
n2.0
o2
n-34.6
o5
o0
v0
n-0.942
n2.0
o2
o2
o2
o2
o2
n-13.990955899999998
v0
o5
v1
n0.644
o0
v1
n-1.56
o0
o2
n-2.282
v0
n1.95111
o44
o0
o2
n-1.141
o5
o0
v0
n-0.855
n2.0
o2
n-0.95
o5
o0
v1
n-1.56
n2.0
O11 0
o0
o54
5
o2
n2.547
o5
o0
o16
o3
n1
v1
n1
n0.418
o2
n-0.631
o5
o0
o16
o3
n1
v1
n1
n1.12
o2
n1.75
o5
o0
o16
o3
n1
v1
n1
n1.86
o2
n-1.922
o5
o0
o16
o3
n1
v1
n1
n2.66
o2
n1.03
o5
o0
o16
o3
n1
v1
n1
n3.57
n1.0
O12 0
o44
o54
6
o2
n-2.5676
o5
o0
o16
o3
n1
v1
n1
n0.417
o2
n-4.1055
o5
o0
o16
o3
n1
v1
n1
n0.923
o2
n-12.068
o5
o0
o16
o3
n1
v1
n1
n2.57
o2
n-29.03
o5
o0
o16
o3
n1
v1
n1
n5.54
o2
n-54.93
o5
o0
o16
o3
n1
v1
n1
n10.5
o2
n-222.7
o5
o0
o16
o3
n1
v1
n1
n23.3
O13 0
n0.0
x2
0 1.00000001
1 1.0
r
b
3
3
k1
0
G0 2
0 0
1 4.0257768311
G1 1
0 0
G2 1
0 0
G3 1
1 0
G4 1
1 0
G5 2
0 0
1 0
G6 2
0 0
1 0
G7 2
0 0
1 0
G8 2
0 0
1 0
G9 2
0 0
1 0
G10 2
0 0
1 0
G11 1
1 0
G12 1
1 0
